14 29 67
1 2 5
1 3 4
1 6 4
1 10 2
1 11 2
1 14 5
2 3 5
2 4 5
2 5 4
2 8 3
3 7 4
3 10 3
4 11 3
4 12 2
5 9 3
5 12 4
5 13 1
6 8 4
6 9 2
6 10 1
6 11 1
6 12 1
7 9 2
8 12 1
8 14 1
9 12 2
9 13 3
10 12 1
12 13 1
